StringID   Type       x          y          demand     ReadyTime  DueDate    ServiceTime 
D0         d     0     35.0       35.0       0.0        0.0        1000.0     0.0           
C77        c     1     53.0       43.0       14.0       86.0       224.0      10.0       
C17        c     2     5.0        30.0       2.0        0.0        959.0      10.0       
C37        c     3     20.0       20.0       8.0        0.0        968.0      10.0       
C18        c     4     20.0       40.0       12.0       403.0      513.0      10.0       
C72        c     5     47.0       16.0       25.0       104.0      252.0      10.0    
S0         f     6     35.0       35.0       0.0        0.0        1000.0     0.0        
S13        f     7     21.0       22.0       0.0        0.0        1000.0     0.0        
S15        f     8     34.0       16.0       0.0        0.0        1000.0     0.0     
S0         f     9     35.0       35.0       0.0        0.0        1000.0     0.0        
S13        f     10     21.0       22.0       0.0        0.0        1000.0     0.0        
S15        f     11     34.0       16.0       0.0        0.0        1000.0     0.0     
S0         f     12     35.0       35.0       0.0        0.0        1000.0     0.0        
S13        f     13     21.0       22.0       0.0        0.0        1000.0     0.0        
S15        f     14     34.0       16.0       0.0        0.0        1000.0     0.0     
S0         f     15     35.0       35.0       0.0        0.0        1000.0     0.0        
S13        f     16     21.0       22.0       0.0        0.0        1000.0     0.0        
S15        f     17     34.0       16.0       0.0        0.0        1000.0     0.0     
S0         f     18     35.0       35.0       0.0        0.0        1000.0     0.0        
S13        f     19     21.0       22.0       0.0        0.0        1000.0     0.0        
S15        f     20     34.0       16.0       0.0        0.0        1000.0     0.0     
D0         d     21     35.0       35.0       0.0        0.0        1000.0     0.0 
Q Vehicle fuel tank capacity /60.63/
C Vehicle load capacity /1000.0/
r fuel consumption rate /1.0/
g inverse refueling rate /0.49/
v average Velocity /1.0/
